decision_x1=[0,7];
decision_x2=[0,7];
decision_x3=[0,7];
decision_x4=[0,7];
decision_x5=[0,7];
decision_x6=[0,7];
decision_x7=[0,7];
decision_x8=[0,7];
decision_x9=[0,7];
decision_x10=[0,7];
decision_x11=[0,7];
decision_x12=[0,7];
decision_x13=[0,7];
decision_x14=[0,7];
decision_x15=[0,7];
decision_x16=[0,7];
decision_x17=[0,7];
decision_x18=[0,7];
decision_x19=[0,7];
decision_x20=[0,7];
random_y1=[0,7];
random_y2=[0,7];
random_y3=[0,7];
random_y4=[0,7];
random_y5=[0,7];
random_y6=[0,7];
random_y7=[0,7];
random_y8=[0,7];
random_y9=[0,7];
constraint_x2_x1=[
0,0,6.6|
0,1,1.1|
0,2,1|
0,3,6.8|
0,4,3.1|
0,5,4.5|
0,6,10|
0,7,4.2|
1,0,8.1|
1,1,3.9|
1,2,6|
1,3,3.5|
1,4,5.2|
1,5,0.084|
1,6,7.9|
1,7,2.7|
2,0,0.5|
2,1,5.5|
2,2,3.5|
2,3,2.7|
2,4,9.1|
2,5,5.3|
2,6,7.4|
2,7,1.4|
3,0,1.8|
3,1,3.3|
3,2,8.1|
3,3,8.7|
3,4,3.7|
3,5,8.7|
3,6,8.4|
3,7,7.1|
4,0,0.64|
4,1,5.6|
4,2,5.6|
4,3,2|
4,4,4.8|
4,5,8.9|
4,6,3.4|
4,7,4.4|
5,0,2.8|
5,1,8.4|
5,2,5.2|
5,3,4.6|
5,4,3.2|
5,5,5|
5,6,5.7|
5,7,9.7|
6,0,8.2|
6,1,4.9|
6,2,5.7|
6,3,5.2|
6,4,9.9|
6,5,7.5|
6,6,9.5|
6,7,5.4|
7,0,7.4|
7,1,9.7|
7,2,1.8|
7,3,6.2|
7,4,4.9|
7,5,2.6|
7,6,0.18|
7,7,0.29|
];
constraint_x3_x2=[
0,0,7.6|
0,1,4.3|
0,2,9.7|
0,3,1.8|
0,4,4.4|
0,5,2.5|
0,6,2.6|
0,7,5.7|
1,0,5.7|
1,1,1.2|
1,2,2.7|
1,3,3.2|
1,4,5.6|
1,5,2.8|
1,6,9.7|
1,7,9.8|
2,0,0.58|
2,1,6.5|
2,2,4.5|
2,3,0.01|
2,4,6.3|
2,5,5|
2,6,3|
2,7,5.1|
3,0,4.9|
3,1,7.2|
3,2,6.6|
3,3,8.3|
3,4,1|
3,5,2.8|
3,6,9.8|
3,7,5.3|
4,0,9.4|
4,1,0.28|
4,2,4|
4,3,0.77|
4,4,0.85|
4,5,0.89|
4,6,1.3|
4,7,6.4|
5,0,2.1|
5,1,6.9|
5,2,4.4|
5,3,8.5|
5,4,7|
5,5,3.6|
5,6,0.77|
5,7,0.64|
6,0,1.5|
6,1,6.8|
6,2,3.9|
6,3,6.8|
6,4,8.4|
6,5,6.4|
6,6,8.3|
6,7,4.7|
7,0,4.1|
7,1,6.6|
7,2,4.5|
7,3,5.4|
7,4,0.78|
7,5,1.5|
7,6,4.7|
7,7,3.2|
];
constraint_x4_x3=[
0,0,5.1|
0,1,1.1|
0,2,5.2|
0,3,2.5|
0,4,4.4|
0,5,9.1|
0,6,5.6|
0,7,7.1|
1,0,8.5|
1,1,4.4|
1,2,4.5|
1,3,2|
1,4,7.8|
1,5,6.9|
1,6,7.1|
1,7,1.5|
2,0,9.9|
2,1,5.6|
2,2,7.3|
2,3,4.9|
2,4,1.7|
2,5,8.1|
2,6,7.7|
2,7,8.5|
3,0,2.6|
3,1,6|
3,2,6|
3,3,1.4|
3,4,8.7|
3,5,2.2|
3,6,9.9|
3,7,6.8|
4,0,9.9|
4,1,9.3|
4,2,0.38|
4,3,9.9|
4,4,7.3|
4,5,8.3|
4,6,8.5|
4,7,4.1|
5,0,7.4|
5,1,8.5|
5,2,3.1|
5,3,5.4|
5,4,9.2|
5,5,4.1|
5,6,5.4|
5,7,0.23|
6,0,1.5|
6,1,7.1|
6,2,3.3|
6,3,4.3|
6,4,4.6|
6,5,0.72|
6,6,5|
6,7,0.12|
7,0,6.3|
7,1,9.1|
7,2,1.4|
7,3,2.3|
7,4,4.5|
7,5,8.2|
7,6,4.8|
7,7,0.15|
];
constraint_x5_x1=[
0,0,6.3|
0,1,2.2|
0,2,6.1|
0,3,0.5|
0,4,7.1|
0,5,0.13|
0,6,5.3|
0,7,9.1|
1,0,5.9|
1,1,6.1|
1,2,2.8|
1,3,0.12|
1,4,3.3|
1,5,6.7|
1,6,5.1|
1,7,4.9|
2,0,7.9|
2,1,2.4|
2,2,1.9|
2,3,2.4|
2,4,5.9|
2,5,2.2|
2,6,7.5|
2,7,9.9|
3,0,2.9|
3,1,4.7|
3,2,3.6|
3,3,8.2|
3,4,4.8|
3,5,0.052|
3,6,4.4|
3,7,3.3|
4,0,7.3|
4,1,2.6|
4,2,8.9|
4,3,2.6|
4,4,5.7|
4,5,9.1|
4,6,2.4|
4,7,8.5|
5,0,4.6|
5,1,2|
5,2,5.2|
5,3,7.1|
5,4,4|
5,5,0.67|
5,6,2.6|
5,7,0.49|
6,0,2.9|
6,1,6.6|
6,2,3.7|
6,3,6.8|
6,4,5.6|
6,5,0.45|
6,6,5.6|
6,7,4.8|
7,0,8.3|
7,1,9.7|
7,2,5.5|
7,3,3.2|
7,4,4.6|
7,5,2.8|
7,6,0.33|
7,7,5.5|
];
constraint_x6_x2=[
0,0,5.3|
0,1,2.5|
0,2,1.2|
0,3,3|
0,4,3.8|
0,5,7.7|
0,6,7.1|
0,7,2.2|
1,0,2.6|
1,1,5.8|
1,2,7.5|
1,3,5.5|
1,4,4.3|
1,5,0.46|
1,6,8.8|
1,7,2.8|
2,0,6.4|
2,1,5.1|
2,2,8.7|
2,3,7|
2,4,4|
2,5,6.5|
2,6,4.2|
2,7,9.6|
3,0,1.1|
3,1,1.5|
3,2,5.8|
3,3,7.3|
3,4,9.5|
3,5,8.4|
3,6,1.9|
3,7,6.6|
4,0,5.8|
4,1,7.2|
4,2,2.7|
4,3,8|
4,4,6.5|
4,5,3.4|
4,6,8.5|
4,7,10|
5,0,1.4|
5,1,3.9|
5,2,9|
5,3,9.3|
5,4,7|
5,5,9.5|
5,6,1|
5,7,5.1|
6,0,1.9|
6,1,5.1|
6,2,9.5|
6,3,5.2|
6,4,1.5|
6,5,2.8|
6,6,5.1|
6,7,1.3|
7,0,2|
7,1,0.13|
7,2,2.3|
7,3,3.6|
7,4,0.79|
7,5,9.4|
7,6,3.9|
7,7,8.7|
];
constraint_x6_x5=[
0,0,1.2|
0,1,5.6|
0,2,7.3|
0,3,1.5|
0,4,8.7|
0,5,4.6|
0,6,6.8|
0,7,9|
1,0,4.9|
1,1,0.77|
1,2,7.2|
1,3,1.5|
1,4,1.6|
1,5,3.1|
1,6,0.73|
1,7,2.4|
2,0,7.3|
2,1,6.2|
2,2,4.1|
2,3,5|
2,4,3.7|
2,5,2.9|
2,6,6.3|
2,7,5.8|
3,0,7.4|
3,1,8.7|
3,2,2.5|
3,3,0.96|
3,4,5.9|
3,5,8.4|
3,6,8.7|
3,7,7|
4,0,3.8|
4,1,1.8|
4,2,1.9|
4,3,9.8|
4,4,6.6|
4,5,0.74|
4,6,1.2|
4,7,1.6|
5,0,1|
5,1,4.3|
5,2,8.6|
5,3,7.2|
5,4,10|
5,5,4.9|
5,6,2.3|
5,7,6|
6,0,8.2|
6,1,5|
6,2,2.7|
6,3,6.4|
6,4,3.9|
6,5,9.6|
6,6,3.7|
6,7,9.4|
7,0,0.13|
7,1,4.9|
7,2,6.3|
7,3,3|
7,4,1.8|
7,5,0.062|
7,6,4.2|
7,7,7.8|
];
constraint_x7_x3=[
0,0,3.6|
0,1,0.37|
0,2,2.1|
0,3,8.8|
0,4,3|
0,5,9.9|
0,6,9.5|
0,7,5.4|
1,0,9.7|
1,1,6.6|
1,2,0.74|
1,3,6.8|
1,4,6|
1,5,8.7|
1,6,3.9|
1,7,8.2|
2,0,0.93|
2,1,7.5|
2,2,5|
2,3,6.1|
2,4,8.3|
2,5,8|
2,6,5.7|
2,7,1.1|
3,0,1.5|
3,1,9.1|
3,2,8.2|
3,3,7.2|
3,4,2.4|
3,5,2.7|
3,6,5.1|
3,7,6.6|
4,0,6|
4,1,5.5|
4,2,3|
4,3,8.6|
4,4,3.4|
4,5,2.6|
4,6,5.9|
4,7,5.7|
5,0,6.9|
5,1,5.3|
5,2,2.5|
5,3,0.43|
5,4,3.2|
5,5,9.3|
5,6,2.6|
5,7,6|
6,0,8.5|
6,1,4.1|
6,2,3.6|
6,3,6|
6,4,7.8|
6,5,3.2|
6,6,3.4|
6,7,4.1|
7,0,8.7|
7,1,3.6|
7,2,2.2|
7,3,4.9|
7,4,9.2|
7,5,0.15|
7,6,3.2|
7,7,9.4|
];
constraint_x7_x6=[
0,0,3.3|
0,1,6.4|
0,2,1.3|
0,3,3.3|
0,4,9.4|
0,5,4.5|
0,6,4.3|
0,7,3.6|
1,0,9|
1,1,1.1|
1,2,9|
1,3,5.8|
1,4,8.9|
1,5,9.3|
1,6,0.35|
1,7,1.4|
2,0,2.4|
2,1,8.2|
2,2,8.8|
2,3,4.2|
2,4,9.1|
2,5,7.3|
2,6,6.8|
2,7,6.1|
3,0,3|
3,1,8.6|
3,2,9.6|
3,3,1.1|
3,4,2.9|
3,5,7.6|
3,6,4.7|
3,7,3.4|
4,0,1.6|
4,1,0.97|
4,2,2.1|
4,3,8.9|
4,4,8.4|
4,5,5.2|
4,6,2|
4,7,5.8|
5,0,0.33|
5,1,4.8|
5,2,8|
5,3,2.3|
5,4,2.5|
5,5,7.1|
5,6,7.8|
5,7,9.8|
6,0,5.5|
6,1,2.4|
6,2,1.8|
6,3,5.6|
6,4,7.1|
6,5,8.4|
6,6,7.6|
6,7,6.4|
7,0,2.1|
7,1,8.9|
7,2,7|
7,3,8.5|
7,4,4.4|
7,5,8.4|
7,6,9.8|
7,7,8.7|
];
constraint_x8_x4=[
0,0,0.69|
0,1,0.87|
0,2,7.6|
0,3,7.6|
0,4,0.15|
0,5,3.8|
0,6,9.6|
0,7,1.6|
1,0,0.3|
1,1,0.21|
1,2,3.3|
1,3,9|
1,4,7|
1,5,0.17|
1,6,8.1|
1,7,8.7|
2,0,8|
2,1,5.5|
2,2,8.7|
2,3,7.8|
2,4,1.5|
2,5,8.2|
2,6,7.3|
2,7,5|
3,0,3.3|
3,1,8.3|
3,2,9.3|
3,3,2.6|
3,4,9.4|
3,5,6|
3,6,5.1|
3,7,4|
4,0,3|
4,1,4.6|
4,2,5.2|
4,3,0.8|
4,4,5.9|
4,5,2|
4,6,0.2|
4,7,9.4|
5,0,5.7|
5,1,4.8|
5,2,7.5|
5,3,1.7|
5,4,1.1|
5,5,8.6|
5,6,1.2|
5,7,9.8|
6,0,2.8|
6,1,6.9|
6,2,8.8|
6,3,9.5|
6,4,2.6|
6,5,6.1|
6,6,0.25|
6,7,9.2|
7,0,5.7|
7,1,4.7|
7,2,7.4|
7,3,6.1|
7,4,7.2|
7,5,2.3|
7,6,6.1|
7,7,9.8|
];
constraint_x8_x7=[
0,0,0.59|
0,1,2.6|
0,2,5.2|
0,3,8.4|
0,4,1.3|
0,5,6.7|
0,6,6.1|
0,7,9.3|
1,0,8.5|
1,1,8|
1,2,4.2|
1,3,2.6|
1,4,8.4|
1,5,1.5|
1,6,3.6|
1,7,4.1|
2,0,0.063|
2,1,4.5|
2,2,3.5|
2,3,4.8|
2,4,3.6|
2,5,2.3|
2,6,7.5|
2,7,7.8|
3,0,7.8|
3,1,9.9|
3,2,2.9|
3,3,3.5|
3,4,8.8|
3,5,5.7|
3,6,0.16|
3,7,5.6|
4,0,2.1|
4,1,5.1|
4,2,1.9|
4,3,6.6|
4,4,2.9|
4,5,3.8|
4,6,1|
4,7,9.6|
5,0,3.2|
5,1,3.5|
5,2,9.1|
5,3,7.2|
5,4,7.5|
5,5,6.3|
5,6,7.3|
5,7,3.6|
6,0,2.6|
6,1,1.2|
6,2,5.2|
6,3,4.7|
6,4,7.6|
6,5,9|
6,6,3.4|
6,7,5.9|
7,0,1.6|
7,1,7.1|
7,2,4.8|
7,3,2.5|
7,4,7.8|
7,5,7.2|
7,6,7.6|
7,7,6.3|
];
constraint_x9_x5=[
0,0,0.52|
0,1,0.32|
0,2,5.5|
0,3,6.9|
0,4,9.2|
0,5,5.8|
0,6,2.6|
0,7,4.3|
1,0,5.7|
1,1,0.52|
1,2,5.6|
1,3,5.1|
1,4,5.7|
1,5,3.4|
1,6,2.5|
1,7,4.8|
2,0,6.2|
2,1,9.8|
2,2,0.36|
2,3,3.6|
2,4,5.8|
2,5,2.7|
2,6,9.2|
2,7,9.3|
3,0,3.1|
3,1,0.55|
3,2,5.4|
3,3,4.3|
3,4,8|
3,5,5.7|
3,6,2.8|
3,7,0.52|
4,0,1.2|
4,1,7.6|
4,2,1.5|
4,3,7.4|
4,4,6.8|
4,5,3.2|
4,6,5|
4,7,7.3|
5,0,5.5|
5,1,1.6|
5,2,0.61|
5,3,0.34|
5,4,4.2|
5,5,0.22|
5,6,5.9|
5,7,2.8|
6,0,3.6|
6,1,9.9|
6,2,1.9|
6,3,5.5|
6,4,8.2|
6,5,7.5|
6,6,6.4|
6,7,2.9|
7,0,3|
7,1,3.7|
7,2,7.9|
7,3,7.1|
7,4,2.4|
7,5,0.65|
7,6,3.2|
7,7,6.5|
];
constraint_x10_x6=[
0,0,8.7|
0,1,7.6|
0,2,8|
0,3,6.5|
0,4,0.36|
0,5,2.8|
0,6,0.45|
0,7,1|
1,0,1|
1,1,0.6|
1,2,2.9|
1,3,0.27|
1,4,7.4|
1,5,8.7|
1,6,1.1|
1,7,5.3|
2,0,7.7|
2,1,0.72|
2,2,2.2|
2,3,5.2|
2,4,7.1|
2,5,9.1|
2,6,9.4|
2,7,3.9|
3,0,0.084|
3,1,8.7|
3,2,7.3|
3,3,0.3|
3,4,6.5|
3,5,1.4|
3,6,9|
3,7,7.5|
4,0,10|
4,1,6.8|
4,2,6.8|
4,3,4.5|
4,4,2|
4,5,6.2|
4,6,0.36|
4,7,3.3|
5,0,8.9|
5,1,1.7|
5,2,4.7|
5,3,2.7|
5,4,6.4|
5,5,6.7|
5,6,1.1|
5,7,5.3|
6,0,0.78|
6,1,3.2|
6,2,3.4|
6,3,9.3|
6,4,3.5|
6,5,7|
6,6,8.5|
6,7,7.5|
7,0,0.27|
7,1,7.2|
7,2,8.4|
7,3,3.9|
7,4,5.8|
7,5,0.17|
7,6,8.6|
7,7,9.8|
];
constraint_x10_x9=[
0,0,4.2|
0,1,9.1|
0,2,2.8|
0,3,3.9|
0,4,9.6|
0,5,7.6|
0,6,6.7|
0,7,6.1|
1,0,5.2|
1,1,3.8|
1,2,5.4|
1,3,3.6|
1,4,2.4|
1,5,1.5|
1,6,5.8|
1,7,5.2|
2,0,7.3|
2,1,0.67|
2,2,7.3|
2,3,2.1|
2,4,5.3|
2,5,2.3|
2,6,2.5|
2,7,4.6|
3,0,1.4|
3,1,4|
3,2,3.7|
3,3,2.6|
3,4,3.9|
3,5,3.8|
3,6,5.3|
3,7,3.8|
4,0,8.9|
4,1,2.8|
4,2,1.5|
4,3,4.3|
4,4,5.1|
4,5,2.9|
4,6,1.6|
4,7,0.3|
5,0,3|
5,1,8.8|
5,2,5|
5,3,5.7|
5,4,4.4|
5,5,4.5|
5,6,3.7|
5,7,7.7|
6,0,7.5|
6,1,6.1|
6,2,1.2|
6,3,7.7|
6,4,4.3|
6,5,6.7|
6,6,7.3|
6,7,7.9|
7,0,2|
7,1,0.76|
7,2,1.6|
7,3,3.4|
7,4,2.8|
7,5,5.7|
7,6,5.6|
7,7,0.59|
];
constraint_x11_x7=[
0,0,5.2|
0,1,4.6|
0,2,1.1|
0,3,7.2|
0,4,7.2|
0,5,9.1|
0,6,4.7|
0,7,5.3|
1,0,10|
1,1,7.9|
1,2,7.8|
1,3,0.57|
1,4,9.1|
1,5,4.4|
1,6,3.7|
1,7,4.2|
2,0,3.8|
2,1,2.9|
2,2,0.66|
2,3,1.7|
2,4,3.1|
2,5,2.2|
2,6,8|
2,7,1.5|
3,0,9.3|
3,1,5.7|
3,2,5.9|
3,3,3.7|
3,4,7.4|
3,5,0.27|
3,6,4.9|
3,7,6.9|
4,0,3.4|
4,1,5.9|
4,2,1.9|
4,3,0.59|
4,4,5.3|
4,5,0.045|
4,6,3|
4,7,3.5|
5,0,7.6|
5,1,6.7|
5,2,5.1|
5,3,6.3|
5,4,7.4|
5,5,8.1|
5,6,4.5|
5,7,7.1|
6,0,7|
6,1,8.5|
6,2,2.3|
6,3,4|
6,4,8.3|
6,5,0.058|
6,6,6.2|
6,7,3.2|
7,0,7.2|
7,1,5.9|
7,2,6.8|
7,3,0.17|
7,4,1.6|
7,5,5.2|
7,6,5.4|
7,7,8.7|
];
constraint_x11_x10=[
0,0,7|
0,1,3.4|
0,2,2.8|
0,3,2.9|
0,4,9.8|
0,5,3.5|
0,6,9.4|
0,7,9|
1,0,3.5|
1,1,5.5|
1,2,7|
1,3,5.7|
1,4,1.1|
1,5,9.4|
1,6,9.9|
1,7,3.4|
2,0,7.9|
2,1,2.6|
2,2,1.6|
2,3,9.6|
2,4,9.5|
2,5,6.9|
2,6,8.7|
2,7,5.8|
3,0,7.3|
3,1,10|
3,2,7.3|
3,3,6.4|
3,4,7.8|
3,5,8.5|
3,6,5.7|
3,7,8.5|
4,0,6.9|
4,1,10|
4,2,3.3|
4,3,1.2|
4,4,0.48|
4,5,7.9|
4,6,0.51|
4,7,1.3|
5,0,2.7|
5,1,3.4|
5,2,0.98|
5,3,6.1|
5,4,7.5|
5,5,4.9|
5,6,5.4|
5,7,8.4|
6,0,0.8|
6,1,4.2|
6,2,4.8|
6,3,6.6|
6,4,4.4|
6,5,9.9|
6,6,9.4|
6,7,5.6|
7,0,4.7|
7,1,6.8|
7,2,9.4|
7,3,2.6|
7,4,7.6|
7,5,9|
7,6,6.8|
7,7,4.1|
];
constraint_x12_x8=[
0,0,5.3|
0,1,6.7|
0,2,3.6|
0,3,6.4|
0,4,8.4|
0,5,2.8|
0,6,4.7|
0,7,4.9|
1,0,2.2|
1,1,2.1|
1,2,9.2|
1,3,2.5|
1,4,7.2|
1,5,1.8|
1,6,8.7|
1,7,7.5|
2,0,7.6|
2,1,8.7|
2,2,3.6|
2,3,2.6|
2,4,0.62|
2,5,4.2|
2,6,9.3|
2,7,8.1|
3,0,2.1|
3,1,2.6|
3,2,6.6|
3,3,7.4|
3,4,0.45|
3,5,8.5|
3,6,1.2|
3,7,0.15|
4,0,9.5|
4,1,3.9|
4,2,7.3|
4,3,7.7|
4,4,8.3|
4,5,8.1|
4,6,8.2|
4,7,9.2|
5,0,2.5|
5,1,5.1|
5,2,2.9|
5,3,0.098|
5,4,9.8|
5,5,0.8|
5,6,4.8|
5,7,2.1|
6,0,5|
6,1,6.3|
6,2,9.3|
6,3,1.7|
6,4,9.1|
6,5,2|
6,6,5.2|
6,7,1|
7,0,5.9|
7,1,1.6|
7,2,3.9|
7,3,5.5|
7,4,1|
7,5,1.2|
7,6,1.3|
7,7,9.5|
];
constraint_x12_x11=[
0,0,1.3|
0,1,4.8|
0,2,6.4|
0,3,7.3|
0,4,6.6|
0,5,0.37|
0,6,5.5|
0,7,5.7|
1,0,6.9|
1,1,2.6|
1,2,4.2|
1,3,5.4|
1,4,0.087|
1,5,3|
1,6,0.62|
1,7,3|
2,0,5.2|
2,1,2.6|
2,2,4.1|
2,3,8.2|
2,4,2.1|
2,5,3.2|
2,6,9.1|
2,7,0.64|
3,0,9.9|
3,1,3.7|
3,2,3|
3,3,8.4|
3,4,2|
3,5,6.5|
3,6,5.1|
3,7,9.5|
4,0,5.7|
4,1,6.1|
4,2,2.7|
4,3,3.1|
4,4,4.8|
4,5,9.5|
4,6,1.9|
4,7,10|
5,0,0.26|
5,1,1.7|
5,2,3.8|
5,3,1.7|
5,4,4.2|
5,5,6.3|
5,6,8.5|
5,7,9.8|
6,0,4.8|
6,1,6.7|
6,2,9.6|
6,3,5.9|
6,4,4.8|
6,5,6|
6,6,4.3|
6,7,8.4|
7,0,2.2|
7,1,9.5|
7,2,4.9|
7,3,4.9|
7,4,5.4|
7,5,0.82|
7,6,9.1|
7,7,1.5|
];
constraint_x13_x9=[
0,0,9.1|
0,1,3.9|
0,2,1.9|
0,3,0.67|
0,4,1.2|
0,5,7.9|
0,6,7.4|
0,7,5.2|
1,0,1.8|
1,1,1.7|
1,2,6.6|
1,3,9.1|
1,4,3.9|
1,5,4.4|
1,6,9.1|
1,7,7.9|
2,0,4.4|
2,1,9.5|
2,2,0.68|
2,3,3.3|
2,4,8|
2,5,2.2|
2,6,5.8|
2,7,7.3|
3,0,2.9|
3,1,8.2|
3,2,0.92|
3,3,2.1|
3,4,8.6|
3,5,3.5|
3,6,4.5|
3,7,5.3|
4,0,6.5|
4,1,6.6|
4,2,6.4|
4,3,0.098|
4,4,1.3|
4,5,6.3|
4,6,3|
4,7,2.3|
5,0,7.3|
5,1,3.4|
5,2,0.59|
5,3,2.5|
5,4,0.91|
5,5,9.3|
5,6,6.4|
5,7,2.4|
6,0,3.2|
6,1,8.4|
6,2,7|
6,3,0.35|
6,4,2.6|
6,5,9.7|
6,6,7.8|
6,7,5|
7,0,8.7|
7,1,6.6|
7,2,1.3|
7,3,9.3|
7,4,4.1|
7,5,3.3|
7,6,1.3|
7,7,0.76|
];
constraint_x14_x10=[
0,0,3.5|
0,1,1.8|
0,2,8.2|
0,3,7.6|
0,4,4.4|
0,5,8.6|
0,6,3.1|
0,7,2.3|
1,0,5.5|
1,1,0.95|
1,2,7.3|
1,3,0.82|
1,4,1.7|
1,5,7.8|
1,6,3.7|
1,7,9|
2,0,3.4|
2,1,2.1|
2,2,3.5|
2,3,7|
2,4,7.2|
2,5,1.2|
2,6,5.1|
2,7,4|
3,0,2.8|
3,1,3.3|
3,2,6.9|
3,3,6.6|
3,4,6.5|
3,5,4.8|
3,6,7.9|
3,7,1.2|
4,0,1.4|
4,1,2|
4,2,0.26|
4,3,1.5|
4,4,1.4|
4,5,9|
4,6,2.9|
4,7,9.7|
5,0,9.5|
5,1,3|
5,2,2.1|
5,3,2.6|
5,4,9.5|
5,5,7.2|
5,6,7.5|
5,7,2.7|
6,0,1.8|
6,1,8.9|
6,2,7.5|
6,3,5.6|
6,4,9.1|
6,5,7.3|
6,6,0.76|
6,7,2.6|
7,0,5.5|
7,1,0.36|
7,2,3.8|
7,3,3.7|
7,4,7.6|
7,5,0.2|
7,6,0.18|
7,7,2|
];
constraint_x14_x13=[
0,0,6.1|
0,1,7.8|
0,2,4.5|
0,3,0.88|
0,4,2.5|
0,5,5.3|
0,6,0.4|
0,7,6.2|
1,0,9.5|
1,1,6.7|
1,2,1.8|
1,3,4.2|
1,4,8.9|
1,5,1.8|
1,6,3.7|
1,7,2.8|
2,0,1.2|
2,1,5.1|
2,2,9.1|
2,3,9.8|
2,4,4.7|
2,5,2.2|
2,6,3.1|
2,7,4.5|
3,0,8.6|
3,1,4.6|
3,2,9.4|
3,3,0.51|
3,4,5|
3,5,1|
3,6,7.3|
3,7,7.4|
4,0,4.4|
4,1,9.9|
4,2,9.8|
4,3,2.1|
4,4,1.7|
4,5,4.5|
4,6,8.7|
4,7,8.6|
5,0,0.36|
5,1,7.8|
5,2,8.2|
5,3,4.4|
5,4,9.9|
5,5,8.6|
5,6,2|
5,7,4.8|
6,0,6|
6,1,9.4|
6,2,9.9|
6,3,2.3|
6,4,3|
6,5,1.3|
6,6,1.6|
6,7,6.6|
7,0,6.6|
7,1,7.9|
7,2,1.8|
7,3,4|
7,4,4.9|
7,5,5.3|
7,6,0.53|
7,7,6.4|
];
constraint_x15_x11=[
0,0,5.4|
0,1,0.11|
0,2,7.3|
0,3,8.5|
0,4,9.9|
0,5,9|
0,6,5.8|
0,7,2.7|
1,0,8.9|
1,1,0.63|
1,2,2.9|
1,3,0.87|
1,4,7.1|
1,5,2.7|
1,6,0.75|
1,7,9.4|
2,0,2.9|
2,1,0.13|
2,2,4.4|
2,3,7.9|
2,4,7|
2,5,0.61|
2,6,0.66|
2,7,5.7|
3,0,9|
3,1,0.83|
3,2,3.4|
3,3,6.8|
3,4,0.2|
3,5,7.4|
3,6,2.3|
3,7,1.8|
4,0,9.3|
4,1,6.4|
4,2,4.4|
4,3,7.1|
4,4,3.4|
4,5,2.8|
4,6,1.8|
4,7,3.7|
5,0,6.3|
5,1,1.2|
5,2,0.87|
5,3,6.6|
5,4,4.7|
5,5,3|
5,6,9.3|
5,7,7.1|
6,0,2.3|
6,1,9.9|
6,2,8.1|
6,3,3.3|
6,4,6.1|
6,5,6.9|
6,6,8.1|
6,7,5.6|
7,0,5.4|
7,1,9.8|
7,2,6.7|
7,3,8.8|
7,4,8.1|
7,5,6.1|
7,6,3.9|
7,7,6.2|
];
constraint_x15_x14=[
0,0,1.8|
0,1,9.2|
0,2,7.4|
0,3,2.7|
0,4,0.37|
0,5,4.6|
0,6,4|
0,7,7.5|
1,0,5.6|
1,1,1.9|
1,2,2.3|
1,3,9.3|
1,4,3.5|
1,5,4.8|
1,6,5.6|
1,7,5.5|
2,0,4.8|
2,1,5.7|
2,2,5.8|
2,3,1.2|
2,4,3.3|
2,5,6.6|
2,6,5.8|
2,7,3.5|
3,0,4.8|
3,1,4.3|
3,2,5.2|
3,3,0.35|
3,4,7.7|
3,5,6.3|
3,6,7.2|
3,7,7.9|
4,0,5.7|
4,1,0.047|
4,2,10|
4,3,1.6|
4,4,5|
4,5,0.44|
4,6,9.8|
4,7,6|
5,0,5.9|
5,1,7.7|
5,2,8.4|
5,3,9|
5,4,2.8|
5,5,9.7|
5,6,0.35|
5,7,4.7|
6,0,0.87|
6,1,1.8|
6,2,9.5|
6,3,3.3|
6,4,9.9|
6,5,3.3|
6,6,6.4|
6,7,5.8|
7,0,3.8|
7,1,0.31|
7,2,3.9|
7,3,9.8|
7,4,0.91|
7,5,8.7|
7,6,0.62|
7,7,8.7|
];
constraint_x16_x12=[
0,0,7.7|
0,1,4.8|
0,2,5.6|
0,3,9.5|
0,4,8.5|
0,5,2.9|
0,6,1.2|
0,7,4.5|
1,0,0.2|
1,1,4.7|
1,2,4.4|
1,3,2.8|
1,4,0.39|
1,5,3|
1,6,4.9|
1,7,1.1|
2,0,7.2|
2,1,9.7|
2,2,2.7|
2,3,7.5|
2,4,3.3|
2,5,6.4|
2,6,7.4|
2,7,6.3|
3,0,0.12|
3,1,5.2|
3,2,6.6|
3,3,1.7|
3,4,2.6|
3,5,2.8|
3,6,7.3|
3,7,9.5|
4,0,0.68|
4,1,2.8|
4,2,6.4|
4,3,7.6|
4,4,2.9|
4,5,2.8|
4,6,0.17|
4,7,6.8|
5,0,1.4|
5,1,5|
5,2,7.3|
5,3,5|
5,4,10|
5,5,2.1|
5,6,9.8|
5,7,8.7|
6,0,0.34|
6,1,0.26|
6,2,7.1|
6,3,7.7|
6,4,0.26|
6,5,7.3|
6,6,2.5|
6,7,4.2|
7,0,5.4|
7,1,5.7|
7,2,4|
7,3,5.8|
7,4,4.2|
7,5,8.7|
7,6,2.6|
7,7,5.4|
];
constraint_x16_x15=[
0,0,3.7|
0,1,4.9|
0,2,1.4|
0,3,3.7|
0,4,6.8|
0,5,8.6|
0,6,0.57|
0,7,3.2|
1,0,3.4|
1,1,8.6|
1,2,8.4|
1,3,5.8|
1,4,1.1|
1,5,9.6|
1,6,1.5|
1,7,4.9|
2,0,8.2|
2,1,7|
2,2,4.1|
2,3,1.8|
2,4,5.5|
2,5,8.1|
2,6,9|
2,7,4.3|
3,0,0.094|
3,1,1.4|
3,2,7.5|
3,3,7.6|
3,4,9.3|
3,5,1.8|
3,6,1.5|
3,7,2.4|
4,0,8.8|
4,1,3|
4,2,3.7|
4,3,6.4|
4,4,6.9|
4,5,0.23|
4,6,8.2|
4,7,3.6|
5,0,9.5|
5,1,2.6|
5,2,9.4|
5,3,1.7|
5,4,7.9|
5,5,0.78|
5,6,0.31|
5,7,2.1|
6,0,8|
6,1,8.4|
6,2,8.1|
6,3,3.6|
6,4,3.8|
6,5,9.2|
6,6,4.6|
6,7,1.3|
7,0,5.7|
7,1,5.5|
7,2,8.5|
7,3,4.5|
7,4,7.2|
7,5,6.9|
7,6,1.5|
7,7,4.2|
];
constraint_x17_x13=[
0,0,7.5|
0,1,4.1|
0,2,8|
0,3,9.3|
0,4,5.1|
0,5,8.4|
0,6,8.2|
0,7,5.1|
1,0,1.8|
1,1,6.7|
1,2,6.4|
1,3,8.2|
1,4,0.76|
1,5,8.7|
1,6,2.4|
1,7,4.2|
2,0,4.4|
2,1,5.3|
2,2,7.9|
2,3,9.4|
2,4,3.1|
2,5,4.1|
2,6,6.1|
2,7,5.4|
3,0,0.74|
3,1,5|
3,2,5.6|
3,3,8.7|
3,4,2|
3,5,4.8|
3,6,4|
3,7,4.6|
4,0,9.3|
4,1,8.2|
4,2,4.2|
4,3,7.4|
4,4,9.7|
4,5,7|
4,6,9.3|
4,7,3.7|
5,0,1.4|
5,1,6.5|
5,2,4.1|
5,3,8.1|
5,4,0.73|
5,5,5.7|
5,6,5.6|
5,7,1.9|
6,0,6|
6,1,6.7|
6,2,3.2|
6,3,9.4|
6,4,5.8|
6,5,4.2|
6,6,1.2|
6,7,5.1|
7,0,0.65|
7,1,7.4|
7,2,2.1|
7,3,6.5|
7,4,8.7|
7,5,9.3|
7,6,9.7|
7,7,3.6|
];
constraint_x18_x14=[
0,0,4.6|
0,1,5.5|
0,2,2|
0,3,2.8|
0,4,8.6|
0,5,9.9|
0,6,4.3|
0,7,5.9|
1,0,7.3|
1,1,6.3|
1,2,1.9|
1,3,0.65|
1,4,0.59|
1,5,4.3|
1,6,1|
1,7,0.58|
2,0,6.9|
2,1,5.3|
2,2,0.13|
2,3,3.2|
2,4,1.5|
2,5,2.9|
2,6,1.9|
2,7,1|
3,0,9.8|
3,1,4.1|
3,2,6.1|
3,3,9.4|
3,4,5.2|
3,5,1|
3,6,2.6|
3,7,8.1|
4,0,8|
4,1,0.89|
4,2,0.95|
4,3,0.59|
4,4,8.8|
4,5,0.58|
4,6,7.9|
4,7,3.7|
5,0,1.3|
5,1,4.7|
5,2,4.3|
5,3,0.22|
5,4,7.5|
5,5,6.1|
5,6,5.4|
5,7,7.5|
6,0,5.9|
6,1,9.1|
6,2,8.4|
6,3,5.5|
6,4,3.7|
6,5,7|
6,6,2.2|
6,7,7.6|
7,0,2.3|
7,1,0.23|
7,2,4.1|
7,3,5.9|
7,4,4.6|
7,5,7.4|
7,6,8.2|
7,7,9|
];
constraint_x18_x17=[
0,0,5.6|
0,1,3.6|
0,2,8.7|
0,3,9.4|
0,4,1.2|
0,5,3.2|
0,6,9.2|
0,7,8.4|
1,0,4.6|
1,1,8.4|
1,2,7.5|
1,3,5.9|
1,4,3.5|
1,5,8.4|
1,6,4.3|
1,7,9.1|
2,0,7.2|
2,1,1.2|
2,2,4|
2,3,5.5|
2,4,0.3|
2,5,1.8|
2,6,4.5|
2,7,5.7|
3,0,6.2|
3,1,0.79|
3,2,6.2|
3,3,2.4|
3,4,6.6|
3,5,3.9|
3,6,1.2|
3,7,5.5|
4,0,0.092|
4,1,1.7|
4,2,5.3|
4,3,8.4|
4,4,6.9|
4,5,7.3|
4,6,0.36|
4,7,6.1|
5,0,7.3|
5,1,3.9|
5,2,3.7|
5,3,7.7|
5,4,1.4|
5,5,7.4|
5,6,3.3|
5,7,4.1|
6,0,7.7|
6,1,7.2|
6,2,3.5|
6,3,3.7|
6,4,1.2|
6,5,1.9|
6,6,7.6|
6,7,0.35|
7,0,1.4|
7,1,1.1|
7,2,1.7|
7,3,2.4|
7,4,6.4|
7,5,8.4|
7,6,4.9|
7,7,8.7|
];
constraint_x19_x15=[
0,0,5.4|
0,1,8.5|
0,2,7.6|
0,3,7.2|
0,4,8.6|
0,5,1.2|
0,6,1.7|
0,7,2|
1,0,2.5|
1,1,8|
1,2,6.6|
1,3,6.4|
1,4,5|
1,5,0.83|
1,6,8.7|
1,7,8.1|
2,0,6.8|
2,1,1.7|
2,2,9.1|
2,3,8.4|
2,4,9.7|
2,5,4.5|
2,6,3.2|
2,7,2|
3,0,7.9|
3,1,2.2|
3,2,5|
3,3,1|
3,4,4.6|
3,5,3.5|
3,6,9.8|
3,7,3.7|
4,0,6.2|
4,1,3.7|
4,2,8.8|
4,3,9.1|
4,4,9.4|
4,5,3.7|
4,6,5.3|
4,7,7.1|
5,0,2.4|
5,1,0.64|
5,2,5.3|
5,3,9.7|
5,4,6.5|
5,5,7.3|
5,6,0.7|
5,7,4.4|
6,0,8.3|
6,1,7.8|
6,2,5.2|
6,3,9.2|
6,4,3.3|
6,5,0.36|
6,6,6.6|
6,7,5|
7,0,9.8|
7,1,7|
7,2,7.2|
7,3,7.3|
7,4,0.29|
7,5,7.3|
7,6,6.6|
7,7,0.55|
];
constraint_x19_x18=[
0,0,9.5|
0,1,6.6|
0,2,9.3|
0,3,2.8|
0,4,9.8|
0,5,9.3|
0,6,2.3|
0,7,8.7|
1,0,8.8|
1,1,8.8|
1,2,4.9|
1,3,0.49|
1,4,2.9|
1,5,9.3|
1,6,1.2|
1,7,9.5|
2,0,5.2|
2,1,1.1|
2,2,3.9|
2,3,7.7|
2,4,9.7|
2,5,8.7|
2,6,2.6|
2,7,6.9|
3,0,2|
3,1,3|
3,2,2.8|
3,3,6.9|
3,4,5.4|
3,5,8.9|
3,6,7|
3,7,1.7|
4,0,2.5|
4,1,5.9|
4,2,5.1|
4,3,1.8|
4,4,0.23|
4,5,6|
4,6,9.4|
4,7,3.5|
5,0,8.6|
5,1,3.9|
5,2,7.6|
5,3,2.2|
5,4,9.6|
5,5,6.1|
5,6,8.7|
5,7,2.4|
6,0,3.3|
6,1,1.2|
6,2,5.6|
6,3,2.1|
6,4,3.9|
6,5,5|
6,6,6.9|
6,7,7.4|
7,0,7.5|
7,1,4|
7,2,8.3|
7,3,2.5|
7,4,1.8|
7,5,3.5|
7,6,0.94|
7,7,7.9|
];
constraint_x20_x16=[
0,0,4.3|
0,1,5.4|
0,2,8.6|
0,3,9.7|
0,4,8.6|
0,5,6.3|
0,6,8.3|
0,7,6.8|
1,0,3|
1,1,5.9|
1,2,4.6|
1,3,8.6|
1,4,6.1|
1,5,3.4|
1,6,4.3|
1,7,9.8|
2,0,8.1|
2,1,0.11|
2,2,0.2|
2,3,1.1|
2,4,8.4|
2,5,6.6|
2,6,5|
2,7,6.5|
3,0,3.3|
3,1,3.1|
3,2,5.1|
3,3,5.8|
3,4,1.3|
3,5,6.8|
3,6,7.1|
3,7,8.9|
4,0,4.1|
4,1,5.3|
4,2,2.5|
4,3,8.8|
4,4,9.6|
4,5,1.7|
4,6,3.9|
4,7,5.7|
5,0,5.4|
5,1,6.4|
5,2,3.3|
5,3,9.1|
5,4,9.5|
5,5,7.1|
5,6,7.9|
5,7,6.5|
6,0,6.2|
6,1,6|
6,2,8.2|
6,3,8.7|
6,4,3.9|
6,5,3.9|
6,6,9.3|
6,7,3.7|
7,0,6.7|
7,1,8.7|
7,2,1.1|
7,3,2.1|
7,4,0.71|
7,5,3.7|
7,6,0.21|
7,7,8.1|
];
constraint_x20_x19=[
0,0,5.5|
0,1,8.5|
0,2,6|
0,3,9.9|
0,4,9.4|
0,5,0.97|
0,6,6|
0,7,7.9|
1,0,6.7|
1,1,3.3|
1,2,6.9|
1,3,8.8|
1,4,9.1|
1,5,5|
1,6,8|
1,7,0.49|
2,0,1|
2,1,6.7|
2,2,6.9|
2,3,7.2|
2,4,7.6|
2,5,4.1|
2,6,6.3|
2,7,3.9|
3,0,6.3|
3,1,8.4|
3,2,7.9|
3,3,1.4|
3,4,6.1|
3,5,1.7|
3,6,3|
3,7,3.4|
4,0,1.7|
4,1,5.4|
4,2,0.74|
4,3,9.4|
4,4,0.41|
4,5,0.11|
4,6,0.96|
4,7,3.7|
5,0,9.2|
5,1,7.7|
5,2,2.9|
5,3,6.7|
5,4,7.3|
5,5,2|
5,6,8.2|
5,7,5.8|
6,0,2.7|
6,1,0.98|
6,2,4.5|
6,3,5.3|
6,4,1.8|
6,5,2.2|
6,6,6.7|
6,7,9.4|
7,0,1.6|
7,1,7.6|
7,2,0.23|
7,3,8|
7,4,3.1|
7,5,0.84|
7,6,6|
7,7,10|
];
constraint_x1_y1=[
0,0,8.9|
0,1,6.8|
0,2,0.81|
0,3,3.6|
0,4,7.1|
0,5,0.52|
0,6,0.2|
0,7,9.1|
1,0,4.2|
1,1,7.6|
1,2,2.3|
1,3,6.9|
1,4,7.3|
1,5,2.6|
1,6,6.3|
1,7,4.6|
2,0,3.1|
2,1,4.1|
2,2,2.1|
2,3,1.3|
2,4,7.5|
2,5,8.6|
2,6,2.4|
2,7,1.6|
3,0,0.57|
3,1,2|
3,2,4.4|
3,3,0.85|
3,4,4.3|
3,5,0.49|
3,6,8.5|
3,7,9.5|
4,0,5.6|
4,1,6.5|
4,2,8|
4,3,4.8|
4,4,0.013|
4,5,2.5|
4,6,4.6|
4,7,4.7|
5,0,0.33|
5,1,9.5|
5,2,9.9|
5,3,4.7|
5,4,3.6|
5,5,6.7|
5,6,9.5|
5,7,0.19|
6,0,6.7|
6,1,8.7|
6,2,8.6|
6,3,8.1|
6,4,9.5|
6,5,5|
6,6,3.2|
6,7,5.6|
7,0,4.9|
7,1,7.3|
7,2,8.4|
7,3,7|
7,4,4.4|
7,5,2.3|
7,6,3.7|
7,7,2.2|
];
constraint_x2_y2=[
0,0,2|
0,1,2.6|
0,2,5|
0,3,6.6|
0,4,2.2|
0,5,8.4|
0,6,9.9|
0,7,8|
1,0,7|
1,1,0.32|
1,2,2.4|
1,3,0.29|
1,4,7.2|
1,5,4.8|
1,6,8.4|
1,7,2.7|
2,0,7.8|
2,1,4.9|
2,2,0.48|
2,3,8.3|
2,4,1.2|
2,5,6.1|
2,6,3.3|
2,7,2.3|
3,0,9.5|
3,1,0.0069|
3,2,2.4|
3,3,9.3|
3,4,2.4|
3,5,1.3|
3,6,6.5|
3,7,4.4|
4,0,0.35|
4,1,9.2|
4,2,5.1|
4,3,10|
4,4,9.7|
4,5,9.2|
4,6,8.3|
4,7,3.5|
5,0,0.34|
5,1,2|
5,2,8.6|
5,3,0.69|
5,4,1.5|
5,5,8.5|
5,6,2.3|
5,7,1.6|
6,0,1|
6,1,3.7|
6,2,8.9|
6,3,7.2|
6,4,9.9|
6,5,1.7|
6,6,8.4|
6,7,5.6|
7,0,4.3|
7,1,3.2|
7,2,7.5|
7,3,8.3|
7,4,0.58|
7,5,2.5|
7,6,5.5|
7,7,9.8|
];
constraint_x3_y3=[
0,0,5.5|
0,1,4|
0,2,4.2|
0,3,6.6|
0,4,5.1|
0,5,3.8|
0,6,8.8|
0,7,5.1|
1,0,7|
1,1,6.6|
1,2,4.9|
1,3,7.6|
1,4,3.5|
1,5,6.1|
1,6,2|
1,7,8.2|
2,0,7.2|
2,1,3.1|
2,2,4.9|
2,3,2.6|
2,4,5.1|
2,5,7.1|
2,6,2.1|
2,7,3.8|
3,0,5.6|
3,1,1.3|
3,2,2.9|
3,3,8|
3,4,8.7|
3,5,5.5|
3,6,0.44|
3,7,6|
4,0,2.1|
4,1,2.5|
4,2,0.5|
4,3,0.75|
4,4,5.9|
4,5,2.7|
4,6,6.3|
4,7,1.3|
5,0,4.2|
5,1,5.3|
5,2,1.2|
5,3,5.3|
5,4,7.2|
5,5,5.7|
5,6,0.79|
5,7,8.8|
6,0,0.43|
6,1,7.1|
6,2,1.8|
6,3,4.1|
6,4,4.8|
6,5,6.1|
6,6,3.5|
6,7,4.3|
7,0,1.1|
7,1,1.5|
7,2,0.023|
7,3,9.7|
7,4,0.27|
7,5,10|
7,6,7.2|
7,7,4.4|
];
constraint_x4_y4=[
0,0,3.4|
0,1,2.6|
0,2,4.9|
0,3,7.4|
0,4,6.6|
0,5,2.9|
0,6,7|
0,7,5.4|
1,0,1.6|
1,1,5.4|
1,2,7.2|
1,3,8.5|
1,4,6.2|
1,5,6|
1,6,4.9|
1,7,6.3|
2,0,3.9|
2,1,9.7|
2,2,7.5|
2,3,8.7|
2,4,6.9|
2,5,6.5|
2,6,6.9|
2,7,2.6|
3,0,5.2|
3,1,7.7|
3,2,4.5|
3,3,7|
3,4,0.34|
3,5,3.8|
3,6,6.3|
3,7,6.1|
4,0,7.7|
4,1,6.8|
4,2,1.5|
4,3,3.7|
4,4,8.5|
4,5,9|
4,6,3.8|
4,7,1.4|
5,0,5.2|
5,1,4.3|
5,2,9.5|
5,3,9.3|
5,4,8.2|
5,5,4.2|
5,6,8.3|
5,7,6.5|
6,0,2.2|
6,1,5.7|
6,2,2.9|
6,3,8.7|
6,4,7.5|
6,5,4.8|
6,6,1.4|
6,7,1.1|
7,0,3.7|
7,1,3.1|
7,2,2.5|
7,3,3.1|
7,4,7.6|
7,5,9.2|
7,6,1.9|
7,7,1.4|
];
constraint_x5_y5=[
0,0,1.8|
0,1,1.5|
0,2,4.3|
0,3,9.6|
0,4,5.8|
0,5,3.1|
0,6,6.7|
0,7,1.9|
1,0,8.1|
1,1,2.4|
1,2,6.8|
1,3,6.4|
1,4,4.8|
1,5,4.5|
1,6,9|
1,7,0.58|
2,0,2.3|
2,1,6.6|
2,2,3.4|
2,3,4.7|
2,4,8.2|
2,5,4.8|
2,6,1.9|
2,7,4|
3,0,6.6|
3,1,5.8|
3,2,1.6|
3,3,1.6|
3,4,0.67|
3,5,6.7|
3,6,8.6|
3,7,3|
4,0,8.1|
4,1,4.9|
4,2,9.3|
4,3,0.71|
4,4,6|
4,5,7.9|
4,6,6|
4,7,7.5|
5,0,4.9|
5,1,6.2|
5,2,6.2|
5,3,7.7|
5,4,3.8|
5,5,5.7|
5,6,2.1|
5,7,0.1|
6,0,6.5|
6,1,6.4|
6,2,6.6|
6,3,0.36|
6,4,3.7|
6,5,9.6|
6,6,2.5|
6,7,5.1|
7,0,9|
7,1,1.6|
7,2,8.3|
7,3,5.5|
7,4,3.7|
7,5,6.6|
7,6,0.18|
7,7,7.4|
];
constraint_x6_y6=[
0,0,8|
0,1,9.8|
0,2,8.1|
0,3,4|
0,4,1.9|
0,5,6.3|
0,6,0.009|
0,7,5|
1,0,1.1|
1,1,8.8|
1,2,8.1|
1,3,6.9|
1,4,4.9|
1,5,8|
1,6,4.2|
1,7,4.8|
2,0,5.8|
2,1,2|
2,2,8.3|
2,3,0.51|
2,4,6.5|
2,5,5.6|
2,6,7.2|
2,7,5.2|
3,0,3.1|
3,1,2.9|
3,2,3.2|
3,3,3.4|
3,4,0.49|
3,5,6.8|
3,6,0.52|
3,7,2.1|
4,0,3.1|
4,1,2.8|
4,2,9.3|
4,3,9.3|
4,4,8.5|
4,5,9.3|
4,6,3.2|
4,7,5.1|
5,0,8.8|
5,1,8|
5,2,1.4|
5,3,7.6|
5,4,6.6|
5,5,9.3|
5,6,0.55|
5,7,5.2|
6,0,9.6|
6,1,1.9|
6,2,1.3|
6,3,2.5|
6,4,9.6|
6,5,7.9|
6,6,8.8|
6,7,3.4|
7,0,5.1|
7,1,1.1|
7,2,3.3|
7,3,9|
7,4,4.8|
7,5,1.6|
7,6,4.7|
7,7,9.6|
];
constraint_x7_y7=[
0,0,7.4|
0,1,7.9|
0,2,8.7|
0,3,1.7|
0,4,1.5|
0,5,5.7|
0,6,0.63|
0,7,5.8|
1,0,5.8|
1,1,4.5|
1,2,6.5|
1,3,2.6|
1,4,1.8|
1,5,6.2|
1,6,3.9|
1,7,0.49|
2,0,1.9|
2,1,2.5|
2,2,3.7|
2,3,6.6|
2,4,1.7|
2,5,9.2|
2,6,0.47|
2,7,5.9|
3,0,1.8|
3,1,6.4|
3,2,0.93|
3,3,4.6|
3,4,6.1|
3,5,1.7|
3,6,6.8|
3,7,6.7|
4,0,4.4|
4,1,3.2|
4,2,9.6|
4,3,3.8|
4,4,3.7|
4,5,4.8|
4,6,4.2|
4,7,9.6|
5,0,8.3|
5,1,4.7|
5,2,10|
5,3,6.4|
5,4,2.8|
5,5,4.3|
5,6,2.9|
5,7,4|
6,0,7.6|
6,1,6.2|
6,2,6.2|
6,3,5.6|
6,4,8|
6,5,9.9|
6,6,7.9|
6,7,9.2|
7,0,8.4|
7,1,1.7|
7,2,8.3|
7,3,2.3|
7,4,6.8|
7,5,10|
7,6,9.2|
7,7,0.52|
];
constraint_x8_y8=[
0,0,0.48|
0,1,4|
0,2,2|
0,3,8.9|
0,4,7.1|
0,5,9.3|
0,6,9.3|
0,7,0.38|
1,0,1.1|
1,1,9.7|
1,2,2.5|
1,3,6.1|
1,4,6.9|
1,5,2|
1,6,6.9|
1,7,7.8|
2,0,6.9|
2,1,0.85|
2,2,7.1|
2,3,0.92|
2,4,1.1|
2,5,3.6|
2,6,1.3|
2,7,2.4|
3,0,4.5|
3,1,6.8|
3,2,9.4|
3,3,8.2|
3,4,8.8|
3,5,3.7|
3,6,0.69|
3,7,0.56|
4,0,4.1|
4,1,4.4|
4,2,0.39|
4,3,7.9|
4,4,6.7|
4,5,6.7|
4,6,8.3|
4,7,8.4|
5,0,5|
5,1,8.6|
5,2,4.5|
5,3,8.3|
5,4,7.5|
5,5,8.5|
5,6,9.4|
5,7,0.51|
6,0,8.8|
6,1,5.4|
6,2,4.9|
6,3,1.8|
6,4,9.6|
6,5,0.3|
6,6,9.4|
6,7,9.5|
7,0,6.6|
7,1,5|
7,2,8.3|
7,3,7.9|
7,4,4.7|
7,5,0.59|
7,6,7.8|
7,7,9.1|
];
constraint_x9_y9=[
0,0,7.3|
0,1,0.55|
0,2,3.1|
0,3,1.7|
0,4,3.8|
0,5,1.6|
0,6,7.4|
0,7,4.2|
1,0,5.3|
1,1,3.2|
1,2,9.3|
1,3,8.7|
1,4,2.8|
1,5,5.4|
1,6,9.7|
1,7,7.8|
2,0,8.6|
2,1,2.7|
2,2,3.1|
2,3,0.6|
2,4,1.4|
2,5,9.2|
2,6,1.4|
2,7,5.9|
3,0,8.1|
3,1,2.9|
3,2,2|
3,3,4.9|
3,4,3.3|
3,5,9.2|
3,6,1.2|
3,7,2.6|
4,0,3.4|
4,1,9.1|
4,2,8.4|
4,3,6.8|
4,4,7|
4,5,8.5|
4,6,8|
4,7,9.4|
5,0,3.8|
5,1,0.61|
5,2,2.3|
5,3,5.7|
5,4,2.5|
5,5,3.2|
5,6,9.6|
5,7,8.2|
6,0,6.8|
6,1,8.2|
6,2,9.7|
6,3,6.2|
6,4,3.3|
6,5,0.34|
6,6,4|
6,7,9.1|
7,0,2.6|
7,1,6.1|
7,2,0.23|
7,3,2.4|
7,4,5|
7,5,5.9|
7,6,3.7|
7,7,3.9|
];
initial_distribution_y1=[0.21,0.029,0.19,0.035,0.29,0.065,0.16,0.025];
initial_distribution_y2=[0.21,0.0098,0.2,0.069,0.12,0.15,0.026,0.22];
initial_distribution_y3=[0.17,0.11,0.16,0.1,0.099,0.07,0.21,0.079];
initial_distribution_y4=[0.059,0.065,0.019,0.15,0.13,0.25,0.045,0.28];
initial_distribution_y5=[0.071,0.2,0.063,0.11,0.17,0.19,0.057,0.14];
initial_distribution_y6=[0.18,0.2,0.018,0.049,0.043,0.18,0.15,0.18];
initial_distribution_y7=[0.21,0.21,0.048,0.12,0.15,0.017,0.23,0.0064];
initial_distribution_y8=[0.034,0.11,0.11,0.14,0.28,0.044,0.058,0.23];
initial_distribution_y9=[0.086,0.17,0.13,0.12,0.025,0.035,0.27,0.15];
transition_y1=[
0.092,0.057,0.13,0.14,0.097,0.19,0.18,0.12|
0.16,0.077,0.21,0.14,0.055,0.068,0.056,0.23|
0.022,0.28,0.055,0.17,0.14,0.1,0.21,0.019|
0.066,0.077,0.072,0.17,0.2,0.11,0.18,0.12|
0.2,0.12,0.057,0.13,0.048,0.15,0.16,0.14|
0.11,0.22,0.027,0.085,0.17,0.077,0.17,0.13|
0.15,0.071,0.061,0.15,0.19,0.066,0.2,0.11|
0.0066,0.15,0.043,0.0069,0.084,0.21,0.41,0.094|
];
transition_y2=[
0.17,0.071,0.032,0.19,0.038,0.25,0.051,0.2|
0.071,0.17,0.015,0.12,0.16,0.17,0.16,0.14|
0.21,0.14,0.27,0.054,0.21,0.039,0.033,0.042|
0.011,0.079,0.078,0.0073,0.19,0.19,0.15,0.29|
0.039,0.092,0.11,0.028,0.25,0.23,0.21,0.041|
0.2,0.042,0.074,0.13,0.16,0.079,0.099,0.22|
0.14,0.023,0.024,0.21,0.18,0.32,0.014,0.1|
0.11,0.18,0.16,0.03,0.038,0.17,0.16,0.15|
];
transition_y3=[
0.041,0.13,0.17,0.2,0.015,0.16,0.1,0.19|
0.13,0.14,0.12,0.1,0.13,0.14,0.092,0.15|
0.16,0.082,0.028,0.034,0.14,0.2,0.24,0.12|
0.12,0.24,0.13,0.15,0.021,0.081,0.17,0.085|
0.1,0.25,0.088,0.19,0.023,0.2,0.036,0.11|
0.13,0.012,0.047,0.12,0.19,0.17,0.23,0.11|
0.15,0.15,0.13,0.26,0.021,0.18,0.082,0.04|
0.14,0.06,0.21,0.033,0.16,0.12,0.23,0.048|
];
transition_y4=[
0.03,0.1,0.21,0.23,0.076,0.16,0.14,0.046|
0.19,0.17,0.17,0.073,0.13,0.056,0.0094,0.19|
0.27,0.026,0.012,0.089,0.12,0.01,0.29,0.18|
0.11,0.18,0.21,0.08,0.11,0.14,0.006,0.16|
0.15,0.12,0.19,0.046,0.088,0.18,0.042,0.18|
0.091,0.11,0.078,0.13,0.022,0.18,0.22,0.17|
0.047,0.26,0.041,0.15,0.04,0.3,0.037,0.13|
0.19,0.21,0.19,0.098,0.029,0.13,0.015,0.15|
];
transition_y5=[
0.066,0.15,0.14,0.029,0.086,0.18,0.18,0.17|
0.21,0.04,0.051,0.18,0.042,0.25,0.066,0.16|
0.065,0.17,0.19,0.2,0.13,0.095,0.14,0.01|
0.14,0.1,0.13,0.12,0.16,0.14,0.12,0.085|
0.14,0.14,0.018,0.058,0.16,0.18,0.11,0.19|
0.15,0.02,0.098,0.24,0.2,0.22,0.03,0.038|
0.019,0.21,0.038,0.17,0.0082,0.22,0.12,0.21|
0.034,0.2,0.12,0.077,0.23,0.096,0.18,0.07|
];
transition_y6=[
0.13,0.084,0.14,0.17,0.19,0.14,0.13,0.011|
0.15,0.15,0.08,0.12,0.039,0.056,0.18,0.22|
0.032,0.18,0.034,0.24,0.24,0.004,0.24,0.029|
0.2,0.21,0.0077,0.14,0.17,0.17,0.013,0.095|
0.17,0.038,0.14,0.061,0.12,0.24,0.15,0.085|
0.17,0.05,0.22,0.19,0.0068,0.033,0.047,0.28|
0.16,0.15,0.22,0.22,0.027,0.073,0.087,0.061|
0.11,0.062,0.16,0.1,0.06,0.15,0.21,0.14|
];
transition_y7=[
0.1,0.042,0.043,0.17,0.19,0.13,0.14,0.18|
0.16,0.1,0.15,0.14,0.15,0.11,0.088,0.099|
0.19,0.1,0.1,0.058,0.19,0.14,0.2,0.03|
0.19,0.078,0.064,0.039,0.16,0.08,0.19,0.2|
0.015,0.15,0.14,0.24,0.25,0.023,0.016,0.17|
0.16,0.14,0.018,0.26,0.35,0.025,0.044,0.013|
0.012,0.15,0.34,0.13,0.028,0.13,0.086,0.13|
0.062,0.2,0.071,0.15,0.052,0.12,0.18,0.17|
];
transition_y8=[
0.12,0.096,0.12,0.14,0.11,0.14,0.13,0.15|
0.23,0.024,0.0036,0.24,0.0059,0.18,0.29,0.015|
0.17,0.04,0.0028,0.22,0.16,0.18,0.094,0.13|
0.012,0.23,0.21,0.044,0.028,0.077,0.15,0.24|
0.11,0.1,0.083,0.17,0.016,0.25,0.086,0.17|
0.15,0.11,0.22,0.13,0.1,0.017,0.11,0.15|
0.0074,0.26,0.028,0.089,0.063,0.087,0.19,0.27|
0.19,0.037,0.059,0.12,0.19,0.14,0.16,0.11|
];
transition_y9=[
0.08,0.17,0.17,0.15,0.12,0.15,0.067,0.1|
0.0031,0.25,0.056,0.21,0.068,0.16,0.22,0.032|
0.066,0.19,0.21,0.16,0.058,0.15,0.12,0.043|
0.06,0.2,0.0025,0.015,0.25,0.19,0.068,0.23|
0.019,0.093,0.11,0.25,0.058,0.15,0.17,0.15|
0.066,0.058,0.11,0.28,0.13,0.012,0.012,0.34|
0.17,0.017,0.17,0.18,0.058,0.2,0.04,0.17|
0.14,0.11,0.0062,0.037,0.02,0.029,0.4,0.26|
];
